757935
84,187,123,130,147,60,181,172,180,135,205,217,69,85,118,192,194,83,94,78,166,56,75,173,142,10,196,213,45,124,226,18,133,110,47,224,46,16,12,219,29,63,43,175,222,4,155,210,144,143,25,21,90,95,165,100,183,115,160,106,195,178,191,36,33,204,74,214,77,54,129,80,39,168,26,101,61,86,34,107,93,49,150,27,88,8,67,136,14,7,119,96,193,164,13,109,200,9,197,199,64,153,163,137,2,184,188,15,59,207,158,22,68,225,176,50,97,41,159,112,72,208,125,121,151,190,113,28,138,57,131,114,1,148,81,157,179,120,76,221,40,127,105,140,218,65,23,189,98,201,104,215,99,52,91,174,53,17,55,42,206,38,66,48,117,70,139,134,82,156,73,146,126,162,177,30,198,31,62,71,0,6,209,182,19,116,35,161,228,132,111,154,3,20,227,87,108,89,149,170,185,169,141,216,152,128,32,223,145,11,186,102,37,202,5,103,211,44,229,203,171,167,92,212,58,220,51,79,24,122
